peakDumbCharging = 11100; 
Machine = anon_enum(16); 
machineSpeed = [3700,3700,3700,3700,3700,3700,3700,3700,3700,3700,3700,3700,3700,3700,3700,3700]; 
machineLoad = [3700,3700,3700,3700,3700,3700,3700,3700,3700,3700,3700,3700,3700,3700,3700,3700]; 
Car = anon_enum(7); 
demandCar = [12960,13560,8880,9120,32201,14040,5560]; 
arrivalCar = [73,67,63,62,59,49,38]; 
departureCar = [79,75,70,67,71,55,41]; 
